; Options: -in -smt2
(set-option :produce-unsat-assumptions true)

(declare-fun start!2791 () Bool)

(assert start!2791)

(declare-fun res!11872 () Bool)

(declare-fun e!8692 () Bool)

(assert (=> start!2791 (=> (not res!11872) (not e!8692))))

(declare-fun jz!49 () (_ BitVec 32))

(assert (=> start!2791 (= res!11872 (and (bvsle #b00000000000000000000000000000010 jz!49) (bvslt jz!49 #b00000000000000000000000000010011)))))

(assert (=> start!2791 e!8692))

(assert (=> start!2791 true))

(declare-datatypes ((array!1259 0))(
  ( (array!1260 (arr!555 (Array (_ BitVec 32) (_ BitVec 32))) (size!555 (_ BitVec 32))) )
))
(declare-fun iq!146 () array!1259)

(declare-fun array_inv!503 (array!1259) Bool)

(assert (=> start!2791 (array_inv!503 iq!146)))

(declare-datatypes ((array!1261 0))(
  ( (array!1262 (arr!556 (Array (_ BitVec 32) (_ FloatingPoint 11 53))) (size!556 (_ BitVec 32))) )
))
(declare-fun q!79 () array!1261)

(declare-fun array_inv!504 (array!1261) Bool)

(assert (=> start!2791 (array_inv!504 q!79)))

(declare-fun b!15274 () Bool)

(declare-fun j!78 () (_ BitVec 32))

(assert (=> b!15274 (= e!8692 (and (bvsgt j!78 #b00000000000000000000000000000000) (let ((ix!183 (bvsub jz!49 j!78))) (or (bvslt ix!183 #b00000000000000000000000000000000) (bvsge ix!183 (size!555 iq!146))))))))

(declare-fun b!15273 () Bool)

(declare-fun res!11874 () Bool)

(assert (=> b!15273 (=> (not res!11874) (not e!8692))))

(declare-fun iqInv!0 (array!1259) Bool)

(assert (=> b!15273 (= res!11874 (iqInv!0 iq!146))))

(declare-fun b!15272 () Bool)

(declare-fun res!11871 () Bool)

(assert (=> b!15272 (=> (not res!11871) (not e!8692))))

(declare-fun z!100 () (_ FloatingPoint 11 53))

(assert (=> b!15272 (= res!11871 (and (bvsle #b00000000000000000000000000000000 j!78) (bvsle j!78 jz!49) (fp.leq (fp #b0 #b00000000000 #b0000000000000000000000000000000000000000000000000000) z!100) (fp.leq z!100 (fp #b0 #b10000110001 #b0100000000000000000000010011111111111111111111111100))))))

(declare-fun b!15271 () Bool)

(declare-fun res!11873 () Bool)

(assert (=> b!15271 (=> (not res!11873) (not e!8692))))

(declare-fun qInv!0 (array!1261) Bool)

(assert (=> b!15271 (= res!11873 (qInv!0 q!79))))

(assert (= (and start!2791 res!11872) b!15271))

(assert (= (and b!15271 res!11873) b!15272))

(assert (= (and b!15272 res!11871) b!15273))

(assert (= (and b!15273 res!11874) b!15274))

(declare-fun m!21501 () Bool)

(assert (=> start!2791 m!21501))

(declare-fun m!21503 () Bool)

(assert (=> start!2791 m!21503))

(declare-fun m!21505 () Bool)

(assert (=> b!15273 m!21505))

(declare-fun m!21507 () Bool)

(assert (=> b!15271 m!21507))

(check-sat (not start!2791) (not b!15273) (not b!15271))
(check-sat)
(get-model)

(declare-fun d!5507 () Bool)

(assert (=> d!5507 (= (array_inv!503 iq!146) (bvsge (size!555 iq!146) #b00000000000000000000000000000000))))

(assert (=> start!2791 d!5507))

(declare-fun d!5509 () Bool)

(assert (=> d!5509 (= (array_inv!504 q!79) (bvsge (size!556 q!79) #b00000000000000000000000000000000))))

(assert (=> start!2791 d!5509))

(declare-fun d!5511 () Bool)

(declare-fun res!11877 () Bool)

(declare-fun e!8696 () Bool)

(assert (=> d!5511 (=> (not res!11877) (not e!8696))))

(assert (=> d!5511 (= res!11877 (= (size!555 iq!146) #b00000000000000000000000000010100))))

(assert (=> d!5511 (= (iqInv!0 iq!146) e!8696)))

(declare-fun b!15277 () Bool)

(declare-fun lambda!661 () Int)

(declare-fun all20Int!0 (array!1259 Int) Bool)

(assert (=> b!15277 (= e!8696 (all20Int!0 iq!146 lambda!661))))

(assert (= (and d!5511 res!11877) b!15277))

(declare-fun m!21509 () Bool)

(assert (=> b!15277 m!21509))

(assert (=> b!15273 d!5511))

(declare-fun d!5513 () Bool)

(declare-fun res!11880 () Bool)

(declare-fun e!8699 () Bool)

(assert (=> d!5513 (=> (not res!11880) (not e!8699))))

(assert (=> d!5513 (= res!11880 (= (size!556 q!79) #b00000000000000000000000000010100))))

(assert (=> d!5513 (= (qInv!0 q!79) e!8699)))

(declare-fun b!15280 () Bool)

(declare-fun lambda!664 () Int)

(declare-fun all20!0 (array!1261 Int) Bool)

(assert (=> b!15280 (= e!8699 (all20!0 q!79 lambda!664))))

(assert (= (and d!5513 res!11880) b!15280))

(declare-fun m!21511 () Bool)

(assert (=> b!15280 m!21511))

(assert (=> b!15271 d!5513))

(check-sat (not b!15277) (not b!15280))
(check-sat)
